benchmarks_CP/INST_36x36/15/inst36x36_15_46.dzn
S=6;
start=[|
-1,	-1,	-1,	19,	-1,	-1,	16,	-1,	-1,	-1,	-1,	-1,	-1,	-1,	-1,	-1,	31,	4,	-1,	-1,	17,	-1,	-1,	-1,	-1,	-1,	-1,	-1,	-1,	-1,	-1,	-1,	-1,	-1,	-1,	-1|
-1,	-1,	-1,	-1,	-1,	-1,	-1,	-1,	-1,	4,	-1,	-1,	-1,	-1,	35,	-1,	-1,	-1,	-1,	-1,	30,	-1,	-1,	-1,	-1,	-1,	-1,	-1,	-1,	-1,	-1,	-1,	-1,	16,	-1,	-1|
-1,	32,	-1,	26,	-1,	-1,	28,	-1,	-1,	-1,	-1,	-1,	-1,	-1,	-1,	8,	-1,	-1,	20,	-1,	-1,	-1,	12,	-1,	-1,	-1,	-1,	-1,	24,	-1,	-1,	-1,	-1,	-1,	-1,	14|
-1,	-1,	-1,	1,	-1,	-1,	-1,	-1,	-1,	-1,	-1,	-1,	-1,	-1,	-1,	12,	-1,	16,	-1,	-1,	-1,	-1,	-1,	5,	-1,	-1,	-1,	-1,	10,	-1,	-1,	-1,	-1,	-1,	-1,	-1|
-1,	-1,	-1,	11,	-1,	-1,	-1,	-1,	-1,	-1,	-1,	17,	20,	-1,	-1,	-1,	22,	21,	-1,	-1,	-1,	-1,	-1,	-1,	-1,	-1,	-1,	35,	12,	-1,	-1,	24,	-1,	33,	-1,	-1|
4,	-1,	-1,	24,	-1,	-1,	12,	-1,	-1,	6,	-1,	-1,	-1,	-1,	5,	-1,	-1,	-1,	-1,	-1,	-1,	-1,	-1,	-1,	-1,	-1,	-1,	-1,	-1,	-1,	-1,	-1,	-1,	-1,	-1,	-1|
28,	-1,	19,	-1,	-1,	-1,	-1,	-1,	-1,	-1,	17,	-1,	-1,	-1,	-1,	-1,	-1,	-1,	-1,	-1,	33,	-1,	-1,	-1,	-1,	3,	-1,	-1,	-1,	-1,	-1,	-1,	-1,	-1,	-1,	-1|
-1,	-1,	-1,	-1,	-1,	-1,	-1,	-1,	-1,	-1,	-1,	-1,	-1,	-1,	-1,	-1,	-1,	-1,	30,	-1,	-1,	-1,	-1,	-1,	-1,	-1,	-1,	-1,	-1,	18,	-1,	-1,	-1,	-1,	20,	-1|
-1,	-1,	-1,	-1,	5,	-1,	-1,	-1,	-1,	-1,	-1,	-1,	-1,	-1,	-1,	-1,	-1,	36,	-1,	22,	-1,	-1,	-1,	-1,	-1,	-1,	-1,	-1,	-1,	-1,	-1,	-1,	-1,	7,	-1,	-1|
-1,	-1,	-1,	-1,	-1,	3,	-1,	-1,	-1,	-1,	-1,	-1,	-1,	-1,	-1,	-1,	26,	-1,	10,	-1,	-1,	-1,	-1,	-1,	-1,	-1,	-1,	-1,	-1,	-1,	-1,	-1,	-1,	35,	6,	2|
-1,	-1,	20,	-1,	30,	-1,	-1,	-1,	-1,	-1,	-1,	-1,	-1,	21,	-1,	-1,	-1,	-1,	27,	-1,	-1,	-1,	-1,	-1,	-1,	-1,	-1,	33,	-1,	-1,	-1,	-1,	-1,	-1,	-1,	-1|
-1,	-1,	2,	-1,	-1,	-1,	-1,	13,	5,	-1,	-1,	-1,	-1,	-1,	-1,	-1,	20,	-1,	-1,	26,	-1,	-1,	-1,	-1,	-1,	-1,	-1,	-1,	-1,	-1,	-1,	-1,	-1,	-1,	-1,	-1|
-1,	-1,	-1,	-1,	-1,	-1,	-1,	-1,	-1,	-1,	-1,	-1,	-1,	-1,	-1,	-1,	-1,	-1,	-1,	-1,	-1,	-1,	-1,	-1,	-1,	-1,	9,	-1,	-1,	-1,	-1,	20,	-1,	-1,	-1,	-1|
-1,	-1,	17,	-1,	-1,	-1,	-1,	-1,	-1,	-1,	-1,	16,	-1,	-1,	-1,	-1,	-1,	-1,	-1,	-1,	-1,	-1,	24,	-1,	-1,	-1,	22,	10,	-1,	-1,	-1,	-1,	-1,	21,	-1,	-1|
-1,	-1,	-1,	-1,	-1,	-1,	-1,	-1,	-1,	-1,	2,	4,	18,	-1,	-1,	-1,	1,	-1,	-1,	-1,	-1,	-1,	25,	-1,	-1,	-1,	-1,	26,	3,	-1,	-1,	-1,	-1,	36,	-1,	-1|
-1,	-1,	-1,	-1,	-1,	-1,	-1,	-1,	-1,	-1,	-1,	-1,	-1,	-1,	20,	-1,	-1,	-1,	-1,	-1,	-1,	-1,	-1,	28,	-1,	18,	-1,	-1,	-1,	-1,	-1,	-1,	-1,	-1,	-1,	-1|
-1,	-1,	-1,	-1,	2,	-1,	17,	-1,	-1,	-1,	-1,	-1,	4,	-1,	-1,	23,	-1,	-1,	-1,	-1,	-1,	-1,	-1,	-1,	1,	-1,	-1,	-1,	25,	-1,	-1,	-1,	-1,	-1,	-1,	-1|
-1,	28,	-1,	-1,	-1,	-1,	-1,	-1,	-1,	-1,	-1,	8,	-1,	-1,	-1,	-1,	16,	-1,	-1,	-1,	-1,	-1,	-1,	-1,	24,	-1,	-1,	-1,	-1,	36,	-1,	-1,	-1,	-1,	-1,	-1|
-1,	-1,	-1,	-1,	-1,	-1,	-1,	-1,	-1,	-1,	-1,	-1,	11,	-1,	22,	-1,	-1,	-1,	-1,	-1,	-1,	-1,	-1,	-1,	-1,	-1,	24,	-1,	-1,	-1,	-1,	-1,	-1,	-1,	-1,	-1|
-1,	-1,	-1,	-1,	-1,	-1,	-1,	-1,	3,	-1,	-1,	-1,	-1,	-1,	-1,	27,	-1,	-1,	-1,	-1,	-1,	-1,	-1,	-1,	-1,	-1,	-1,	-1,	-1,	-1,	-1,	-1,	-1,	29,	-1,	-1|
-1,	-1,	5,	-1,	-1,	-1,	-1,	-1,	-1,	36,	-1,	-1,	-1,	-1,	-1,	-1,	-1,	-1,	-1,	-1,	-1,	-1,	11,	12,	19,	-1,	-1,	-1,	-1,	-1,	-1,	-1,	-1,	-1,	-1,	-1|
-1,	-1,	-1,	-1,	-1,	-1,	-1,	-1,	-1,	28,	-1,	-1,	-1,	18,	-1,	-1,	-1,	-1,	-1,	-1,	-1,	22,	-1,	-1,	-1,	-1,	-1,	-1,	-1,	-1,	-1,	-1,	6,	-1,	-1,	-1|
-1,	25,	-1,	-1,	-1,	-1,	-1,	-1,	33,	-1,	5,	-1,	-1,	-1,	-1,	-1,	-1,	14,	26,	-1,	-1,	-1,	-1,	-1,	-1,	-1,	-1,	-1,	-1,	-1,	-1,	-1,	3,	4,	-1,	-1|
27,	-1,	23,	-1,	-1,	-1,	-1,	-1,	-1,	-1,	-1,	-1,	-1,	-1,	17,	-1,	15,	-1,	-1,	-1,	3,	-1,	-1,	-1,	16,	-1,	-1,	-1,	-1,	-1,	-1,	-1,	14,	-1,	-1,	34|
-1,	-1,	22,	-1,	-1,	19,	-1,	-1,	2,	-1,	7,	26,	-1,	-1,	-1,	-1,	-1,	-1,	-1,	31,	-1,	-1,	-1,	-1,	-1,	25,	-1,	-1,	-1,	-1,	-1,	-1,	-1,	-1,	-1,	15|
-1,	-1,	-1,	-1,	-1,	-1,	-1,	27,	10,	-1,	-1,	-1,	-1,	-1,	-1,	-1,	-1,	-1,	-1,	-1,	-1,	-1,	-1,	-1,	-1,	-1,	18,	-1,	16,	-1,	36,	-1,	-1,	-1,	28,	21|
-1,	-1,	-1,	-1,	-1,	-1,	-1,	-1,	-1,	-1,	-1,	-1,	-1,	12,	-1,	16,	-1,	-1,	-1,	-1,	-1,	21,	9,	-1,	-1,	-1,	-1,	5,	-1,	-1,	-1,	7,	-1,	-1,	-1,	-1|
5,	-1,	8,	-1,	20,	-1,	-1,	-1,	-1,	34,	-1,	-1,	-1,	23,	-1,	36,	-1,	-1,	-1,	-1,	-1,	12,	-1,	-1,	-1,	-1,	-1,	-1,	-1,	-1,	-1,	-1,	-1,	-1,	-1,	-1|
-1,	-1,	32,	-1,	-1,	12,	-1,	-1,	-1,	-1,	-1,	30,	-1,	-1,	-1,	-1,	18,	-1,	-1,	-1,	-1,	-1,	-1,	-1,	-1,	-1,	-1,	-1,	-1,	21,	-1,	-1,	-1,	-1,	22,	-1|
-1,	-1,	18,	-1,	11,	-1,	-1,	-1,	-1,	-1,	-1,	-1,	-1,	-1,	-1,	-1,	-1,	-1,	-1,	-1,	20,	-1,	-1,	8,	-1,	-1,	-1,	17,	-1,	-1,	-1,	-1,	13,	1,	-1,	-1|
33,	-1,	-1,	9,	-1,	14,	-1,	-1,	1,	-1,	-1,	-1,	36,	-1,	-1,	-1,	-1,	8,	-1,	-1,	-1,	-1,	-1,	22,	-1,	-1,	-1,	-1,	-1,	-1,	-1,	13,	-1,	-1,	-1,	-1|
16,	23,	-1,	-1,	-1,	-1,	-1,	-1,	-1,	-1,	-1,	-1,	-1,	4,	25,	-1,	-1,	-1,	-1,	-1,	-1,	-1,	-1,	-1,	-1,	-1,	-1,	-1,	-1,	-1,	-1,	-1,	-1,	-1,	-1,	-1|
-1,	-1,	-1,	-1,	-1,	-1,	-1,	-1,	35,	-1,	-1,	-1,	-1,	-1,	14,	-1,	-1,	5,	-1,	-1,	-1,	-1,	-1,	34,	-1,	-1,	-1,	-1,	-1,	-1,	-1,	-1,	-1,	9,	-1,	-1|
29,	-1,	-1,	-1,	-1,	-1,	-1,	-1,	-1,	-1,	-1,	-1,	-1,	-1,	-1,	-1,	-1,	24,	35,	-1,	-1,	-1,	-1,	-1,	-1,	-1,	2,	-1,	-1,	-1,	-1,	-1,	-1,	-1,	-1,	-1|
-1,	-1,	-1,	-1,	-1,	-1,	-1,	-1,	-1,	-1,	-1,	-1,	-1,	-1,	-1,	-1,	-1,	-1,	-1,	9,	-1,	-1,	-1,	-1,	-1,	-1,	-1,	-1,	32,	-1,	-1,	-1,	-1,	-1,	-1,	-1|
-1,	-1,	-1,	-1,	-1,	-1,	-1,	-1,	-1,	11,	-1,	-1,	2,	22,	-1,	-1,	-1,	-1,	-1,	29,	-1,	-1,	-1,	-1,	-1,	-1,	12,	-1,	-1,	-1,	-1,	-1,	27,	-1,	-1,	-1|];
